1
1000
50
259 1000000
388 1000000
261 1000000
262 2000000
264 1000000
265 1000000
268 1000000
269 1000000
270 1000000
276 2000000
278 1000000
281 3000000
282 2000000
283 1000000
285 1000000
286 1000000
389 1000000
416 1000000
496 1000000
290 1000000
422 1000000
433 1000000
296 1000000
301 1000000
302 1000000
432 1000000
305 1000000
327 1000000
328 1000000
396 1000000
334 1000000
335 1000000
483 1000000
340 1000000
462 1000000
463 1000000
347 1000000
352 1000000
355 1000000
484 1000000
358 1000000
360 1000000
361 1000000
489 1000000
372 2000000
380 2000000
250 1000000
252 4000000
254 1000000
469 1000000
